1210
0	95	176	236	276	324	361	442	461	542
0	85	155	231	341	461	573	618	695	821
0	85	200	242	387	431	528	617	660	744
0	80	187	243	276	306	446	484	591	648
0	157	295	431	448	552	632	745	825	881
155	197	266	365	448	477	573	691	701	771
80	150	243	526	613	744	825	911	1009	1050
0	95	361	476	528	701	911	950	1009	1050
0	60	112	224	236	243	383	542	591	712
91	163	484	613	739	821	950	994	1093	1126
